NAME : st70
TYPE : OP
DIMENSION : 70
COST_LIMIT : 574
ROUTE_NODES : 62
ROUTE_SCORE : 3314
ROUTE_COST : 573
NODE_SEQUENCE_SECTION
1
36
29
13
31
69
38
59
22
66
63
57
15
24
2
4
18
6
42
32
3
8
26
55
49
28
14
20
30
44
68
27
46
45
25
39
61
40
9
43
17
21
34
12
33
62
54
67
11
56
65
51
60
52
10
5
50
58
37
47
16
23
-1
DEPOT_SECTION
1
-1
EOF
